p cnf 200 300
1 144 0
1 169 0
1 88 0
2 173 0
2 5 0
2 135 0
3 26 0
3 135 0
3 21 0
4 142 0
4 141 0
4 75 0
5 179 0
5 82 0
6 197 0
6 174 0
6 163 0
7 160 0
7 165 0
7 152 0
8 62 0
8 18 0
8 112 0
9 149 0
9 55 0
9 84 0
10 192 0
10 78 0
10 186 0
11 194 0
11 150 0
11 20 0
12 110 0
12 49 0
12 108 0
13 164 0
13 118 0
13 54 0
14 98 0
14 127 0
14 31 0
15 102 0
15 119 0
15 192 0
16 87 0
16 91 0
16 78 0
17 180 0
17 116 0
17 189 0
18 59 0
18 173 0
19 157 0
19 119 0
19 146 0
20 21 0
20 125 0
21 88 0
22 108 0
22 133 0
22 57 0
23 116 0
23 60 0
23 109 0
24 154 0
24 183 0
24 72 0
25 106 0
25 121 0
25 71 0
26 34 0
26 171 0
27 178 0
27 69 0
27 179 0
28 127 0
28 163 0
28 61 0
29 152 0
29 103 0
29 83 0
30 130 0
30 193 0
30 154 0
31 194 0
31 80 0
32 190 0
32 40 0
32 177 0
33 46 0
33 39 0
33 121 0
34 42 0
34 125 0
35 124 0
35 123 0
35 38 0
36 187 0
36 200 0
36 104 0
37 148 0
37 56 0
37 40 0
38 108 0
38 176 0
39 78 0
39 180 0
40 128 0
41 172 0
41 72 0
41 157 0
42 170 0
42 176 0
43 126 0
43 111 0
43 76 0
44 129 0
44 73 0
44 195 0
45 105 0
45 190 0
45 67 0
46 146 0
46 47 0
47 172 0
47 136 0
48 197 0
48 122 0
48 97 0
49 94 0
49 114 0
50 168 0
50 74 0
50 133 0
51 130 0
51 56 0
51 137 0
52 87 0
52 155 0
52 62 0
53 119 0
53 69 0
53 185 0
54 152 0
54 94 0
55 181 0
55 199 0
56 183 0
57 130 0
57 189 0
58 83 0
58 110 0
58 90 0
59 177 0
59 89 0
60 99 0
60 85 0
61 150 0
61 114 0
62 156 0
63 106 0
63 166 0
63 107 0
64 149 0
64 196 0
64 75 0
65 184 0
65 138 0
65 175 0
66 195 0
66 164 0
66 140 0
67 172 0
67 79 0
68 74 0
68 70 0
68 86 0
69 93 0
70 196 0
70 157 0
71 137 0
71 191 0
72 162 0
73 139 0
73 145 0
74 195 0
75 92 0
76 181 0
76 180 0
77 143 0
77 174 0
77 128 0
79 103 0
79 177 0
80 116 0
80 200 0
81 99 0
81 139 0
81 113 0
82 102 0
82 115 0
83 95 0
84 98 0
84 90 0
85 87 0
85 185 0
86 92 0
86 153 0
88 132 0
89 120 0
89 193 0
90 151 0
91 118 0
91 111 0
92 191 0
93 160 0
93 132 0
94 100 0
95 148 0
95 153 0
96 166 0
96 131 0
96 200 0
97 187 0
97 132 0
98 146 0
99 191 0
100 101 0
100 106 0
101 188 0
101 125 0
102 134 0
103 122 0
104 151 0
104 115 0
105 112 0
105 143 0
107 159 0
107 113 0
109 134 0
109 124 0
110 113 0
111 134 0
112 123 0
114 141 0
115 139 0
117 187 0
117 162 0
117 153 0
118 175 0
120 126 0
120 129 0
121 198 0
122 178 0
123 184 0
124 179 0
126 158 0
127 186 0
128 189 0
129 142 0
131 186 0
131 144 0
133 151 0
135 154 0
136 143 0
136 163 0
137 158 0
138 147 0
138 158 0
140 184 0
140 159 0
141 197 0
142 169 0
144 185 0
145 161 0
145 167 0
147 168 0
147 148 0
149 198 0
150 161 0
155 182 0
155 183 0
156 165 0
156 188 0
159 170 0
160 161 0
162 198 0
164 167 0
165 170 0
166 190 0
167 199 0
168 194 0
169 196 0
171 175 0
171 178 0
173 182 0
174 188 0
176 199 0
181 193 0
182 192 0
g -121